32      4       
10      10      10      10      
0       0       0       0       0       6       2       4       5       11      30      31      
2       1       1       0       1       2       3       15      
1       5       5       0       7       4       6       26      27      28      
3       0       10      1       4       4       6       14      26      28      
7       3       4       0       5       6       8       13      20      22      27      29      
9       4       0       3       1       4       7       13      22      25      
10      6       0       1       5       2       8       20      
5       3       5       4       0       2       9       23      
3       3       0       6       3       3       10      18      21      
5       0       6       4       4       2       12      19      
7       2       4       0       2       2       16      18      
5       3       0       6       3       1       17      
4       7       2       2       0       1       24      
1       5       2       0       3       1       22      
1       0       5       5       6       1       22      
4       5       0       5       2       1       20      
6       2       3       0       5       1       32      
9       4       0       5       8       1       32      
8       7       4       3       0       1       32      
9       9       0       2       6       1       32      
7       4       5       4       0       1       32      
6       7       6       0       4       1       32      
1       4       2       0       2       1       32      
3       2       0       4       2       1       32      
4       3       0       4       5       1       32      
1       3       2       0       5       1       32      
3       4       0       4       4       1       32      
8       4       3       4       0       1       32      
1       2       0       4       6       1       32      
7       2       0       5       4       1       32      
6       0       3       8       3       1       32      
0       0       0       0       0       0       
